Optimal - objective value 4.00000000
      0 C0000000               4                      -0
      1 C0000001               4                      -0
      0 X0000000               4                       1
